!B3LYP def2-TZVP

%TDDFT
   NROOTS   30
END
*xyz 0 1
Cl         -5.30115948228516      0.81845000000000      0.00000000000000
I          -2.95506051771484      0.81845000000000      0.00000000000000
*